proyfinal/src/viki/013/experimentInOfficeAgust.take6.output/ffd28254-4f0c-4632-bcaa-ed139ba0da45.als.dat
{'cnf.clauses': '118081',
 'cnf.totvars': '69608',
 'conflict literals': '113',
 'conflicts': '36',
 'decisions': '10003',
 'memused.mb': '18.33',
 'outcome': 'UNSAT',
 'propagations': '38527',
 'restarts': '1',
 'solver.msecs': 31,
 'task.msecs': 83}
