proyfinal/src/viki/013/experimentInOfficeAgust.take6.output/ffd28254-4f0c-4632-bcaa-ed139ba0da45.als.out
Reading from standard input... Use '--help' for help.
============================[ Problem Statistics ]=============================
|                                                                             |
|  Number of variables:         69608                                         |
|  Number of clauses:          118081                                         |
|  Parse time:                   0.02 s                                       |
|                                                                             |
============================[ Search Statistics ]==============================
| Conflicts |          ORIGINAL         |          LEARNT          | Progress |
|           |    Vars  Clauses Literals |    Limit  Clauses Lit/Cl |          |
===============================================================================
===============================================================================
restarts              : 1
conflicts             : 36             (1132 /sec)
decisions             : 10003          (0.00 % random) (314500 /sec)
propagations          : 38527          (1211312 /sec)
conflict literals     : 113            (0.00 % deleted)
Memory used           : 18.33 MB
CPU time              : 0.031806 s

UNSATISFIABLE
